Route #1: 17 37 57 19 22 28 48 35 59 36
Route #2: 29 58 32 12 61 53 18
Route #3: 9 54 11 55 7 41 42 47 6 21 30
Route #4: 56 15 23 44 27 33 5
Route #5: 14 13 51
Route #6: 52 40 43 45 49 2
Route #7: 20 10 16 4 50 31 38 46 3 26
Route #8: 8 34 39 25 60
Route #9: 1 24
cost 1539.2500970166286
